<number of tasks>
50

<cycle time>
1000

<order strength>
0.196


<task times>
1 81
2 298
3 177
4 251
5 33
6 234
7 244
8 129
9 109
10 115
11 152
12 75
13 214
14 148
15 288
16 194
17 290
18 189
19 181
20 97
21 230
22 66
23 163
24 124
25 157
26 159
27 143
28 105
29 138
30 250
31 152
32 114
33 98
34 207
35 179
36 134
37 45
38 205
39 161
40 58
41 102
42 125
43 99
44 256
45 63
46 129
47 207
48 120
49 46
50 64

<precedence relations>
1,7
4,6
4,8
6,37
7,9
8,10
8,11
8,12
8,13
8,14
9,17
10,15
10,16
14,18
14,19
15,22
16,24
17,25
18,23
18,26
19,20
19,21
19,27
19,28
20,37
21,37
22,30
23,31
24,29
25,32
26,34
26,36
27,33
28,35
29,37
30,38
31,39
32,38
34,40
34,41
35,42
37,43
37,44
37,45
37,46
37,47
38,48
41,49
42,50

<end>
